p td 60 60
0 1
0 59
0 39
1 2
2 54
2 17
2 30
3 4
4 44
5 6
6 35
7 8
7 53
8 25
8 10
9 10
10 46
11 12
11 35
12 28
13 14
14 31
15 16
16 17
18 19
19 20
20 21
21 22
22 50
23 24
24 25
25 26
26 44
27 35
28 29
29 30
30 32
31 32
33 34
34 35
36 37
37 38
38 39
40 41
41 42
42 43
42 54
43 44
44 45
44 48
45 46
47 48
49 50
50 51
50 58
51 52
52 53
55 56
56 57
57 58
